#######################



#######################
Set parameter TimeLimit to value 500
Set parameter SoftMemLimit to value 125
Set parameter LogFile to value 1202-TimeLimit500-k16x240-6.log
Set parameter Seed to value 16
Using license file /opt/gurobi/gurobi.lic

Gurobi Optimizer version 12.0.2 build v12.0.2rc0 (linux64 - "Ubuntu 22.04.4 LTS")
Copyright (c) 2025, Gurobi Optimization, LLC

Read MPS format model from file /miplib2010/k16x240.mps.bz2
Reading time = 0.00 seconds
k16x240: 256 rows, 480 columns, 960 nonzeros

Using Gurobi shared library /nfs/shared/static-builds/gurobi1202

CPU model: Intel(R) Xeon(R) E-2388G CPU @ 3.20GHz, instruction set [SSE2|AVX|AVX2|AVX512]
Thread count: 8 physical cores, 16 logical processors, using up to 16 threads

Non-default parameters:
TimeLimit  500
SoftMemLimit  125
Seed  16

Optimize a model with 256 rows, 480 columns and 960 nonzeros
Model fingerprint: 0x4e80885f
Variable types: 240 continuous, 240 integer (240 binary)
Coefficient statistics:
  Matrix range     [1e+00, 1e+03]
  Objective range  [1e+00, 1e+03]
  Bounds range     [1e+00, 1e+03]
  RHS range        [4e+00, 4e+02]
Found heuristic solution: objective 20319.000000
Presolve time: 0.00s
Presolved: 256 rows, 480 columns, 960 nonzeros
Variable types: 240 continuous, 240 integer (240 binary)

Root relaxation: objective 2.769838e+03, 51 iterations, 0.00 seconds (0.00 work units)

    Nodes    |    Current Node    |     Objective Bounds      |     Work
 Expl Unexpl |  Obj  Depth IntInf | Incumbent    BestBd   Gap | It/Node Time

     0     0 2769.83800    0   14 20319.0000 2769.83800  86.4%     -    0s
H    0     0                    11359.000000 2769.83800  75.6%     -    0s
H    0     0                    11195.000000 2769.83800  75.3%     -    0s
H    0     0                    11088.000000 8084.69631  27.1%     -    0s
H    0     0                    11074.000000 8084.69631  27.0%     -    0s
     0     0 8084.69631    0   26 11074.0000 8084.69631  27.0%     -    0s
H    0     0                    10916.000000 8126.71248  25.6%     -    0s
     0     0 8528.16906    0   24 10916.0000 8528.16906  21.9%     -    0s
H    0     0                    10896.000000 8539.49533  21.6%     -    0s
     0     0 8539.49533    0   34 10896.0000 8539.49533  21.6%     -    0s
H    0     0                    10806.000000 8548.03675  20.9%     -    0s
     0     0 8548.03675    0   29 10806.0000 8548.03675  20.9%     -    0s
H    0     0                    10779.000000 8739.20556  18.9%     -    0s
     0     0 8739.20556    0   38 10779.0000 8739.20556  18.9%     -    0s
H    0     0                    10732.000000 8745.55182  18.5%     -    0s
H    0     0                    10717.000000 8745.55182  18.4%     -    0s
     0     0 8805.66840    0   29 10717.0000 8805.66840  17.8%     -    0s
     0     0 8815.00598    0   31 10717.0000 8815.00598  17.7%     -    0s
     0     0 8817.96662    0   29 10717.0000 8817.96662  17.7%     -    0s
     0     0 9010.31403    0   35 10717.0000 9010.31403  15.9%     -    0s
     0     0 9016.71355    0   31 10717.0000 9016.71355  15.9%     -    0s
     0     0 9052.11256    0   32 10717.0000 9052.11256  15.5%     -    0s
     0     0 9054.85879    0   32 10717.0000 9054.85879  15.5%     -    0s
     0     2 9054.85879    0   32 10717.0000 9054.85879  15.5%     -    0s
H  118   144                    10678.000000 9169.11416  14.1%  26.2    0s
H  143   183                    10674.000000 9169.11416  14.1%  25.3    0s
 38775 12922     cutoff   35      10674.0000 10056.1511  5.79%  25.2    5s
 78201 16605 10452.5788   24   23 10674.0000 10250.3120  3.97%  26.6   10s
 120853 10198     cutoff   35      10674.0000 10424.7129  2.34%  26.6   15s

Cutting planes:
  Gomory: 4
  Lift-and-project: 13
  Cover: 71
  Implied bound: 27
  Dual implied bound: 36
  MIR: 189
  Flow cover: 268
  Flow path: 44
  Zero half: 3
  Network: 64
  Relax-and-lift: 3

Explored 140079 nodes (3557495 simplex iterations) in 16.70 seconds (22.55 work units)
Thread count was 16 (of 16 available processors)

Solution count 10: 10674 10678 10717 ... 11088

Optimal solution found (tolerance 1.00e-04)
Best objective 1.067400000000e+04, best bound 1.067400000000e+04, gap 0.0000%
